Gurobi 12.0.1:   lim:time = 14400
  mip:bestbound = 1
Set parameter LogToConsole to value 1
  tech:outlev = 1
Set parameter Cuts to value 3
  cut:cuts = 3
Set parameter Presolve to value 2
  pre:solve = 2
Set parameter MIPFocus to value 2
  mip:focus = 2
Set parameter Symmetry to value 2
  mip:symmetry = 2
Set parameter InfUnbdInfo to value 1
Gurobi Optimizer version 12.0.1 build v12.0.1rc0 (win64 - Windows 11.0 (26100.2))

CPU model: Intel(R) Core(TM) i7-10700 CPU @ 2.90GHz, instruction set [SSE2|AVX|AVX2]
Thread count: 8 physical cores, 16 logical processors, using up to 16 threads

Non-default parameters:
TimeLimit  14400
MIPFocus  2
Symmetry  2
Cuts  3
InfUnbdInfo  1
Presolve  2

Optimize a model with 232 rows, 233 columns and 1350 nonzeros
Model fingerprint: 0x69960d5a
Model has 1 quadratic objective term
Model has 4 quadratic constraints
Variable types: 23 continuous, 210 integer (0 binary)
Coefficient statistics:
  Matrix range     [1e+00, 1e+05]
  QMatrix range    [1e+00, 1e+00]
  QLMatrix range   [1e+00, 2e+01]
  Objective range  [9e+00, 1e+02]
  QObjective range [3e+00, 3e+00]
  Bounds range     [1e+00, 9e+01]
  RHS range        [1e+00, 1e+05]
  QRHS range       [1e+02, 1e+02]
Presolve removed 35 rows and 64 columns
Presolve time: 0.02s
Presolved: 288 rows, 243 columns, 1503 nonzeros
Variable types: 12 continuous, 231 integer (231 binary)
Root relaxation presolve removed 47 rows and 0 columns
Root relaxation presolved: 149 rows, 205 columns, 953 nonzeros


Root relaxation: objective 1.293645e+02, 39 iterations, 0.00 seconds (0.00 work units)

    Nodes    |    Current Node    |     Objective Bounds      |     Work
 Expl Unexpl |  Obj  Depth IntInf | Incumbent    BestBd   Gap | It/Node Time

     0     0  129.36448    0   24          -  129.36448      -     -    0s
H    0     0                     437.6400000  129.36448  70.4%     -    0s
H    0     0                     229.9800000  129.36448  43.7%     -    0s
     0     0  209.54000    0   11  229.98000  209.54000  8.89%     -    0s
     0     0  209.54000    0   22  229.98000  209.54000  8.89%     -    0s
     0     0  209.54000    0    9  229.98000  209.54000  8.89%     -    0s
     0     0  209.54342    0    6  229.98000  209.54342  8.89%     -    0s
     0     0  229.98000    0    6  229.98000  229.98000  0.00%     -    0s

Cutting planes:
  Learned: 7
  MIR: 3
  Flow cover: 9

Explored 1 nodes (150 simplex iterations) in 0.09 seconds (0.05 work units)
Thread count was 16 (of 16 available processors)

Solution count 2: 229.98 437.64 

Optimal solution found (tolerance 1.00e-04)
Best objective 2.299800000000e+02, best bound 2.299800000000e+02, gap 0.0000%

AMPL MP initial flat model has 233 variables (0 integer, 210 binary);
Objectives: 1 quadratic; 
Constraints:  232 linear; 4 quadratic;

AMPL MP final model has 233 variables (0 integer, 210 binary);
Objectives: 1 quadratic; 
Constraints:  232 linear; 4 quadratic;


-----RESULTS INFO-----
running_time:  0.156
TC.best_bound:  229.98
TC:  229.98000000000002
MIP Gap (%):  1.2358339607967651e-14
=== Vehicle Routes ===
Vehicle 1: 0 → 1
Vehicle 1: 1 → 3
Vehicle 1: 2 → 9
Vehicle 1: 3 → 2
Vehicle 1: 6 → 14
Vehicle 1: 9 → 6
Vehicle 2: 0 → 14

=== Full Vehicle Routes ===
Vehicle 1: 0 → 1 → 3 → 2 → 9 → 6 → 0 (48<100)
Vehicle 2: 0 → 0 (0<100)
Arc used by MRT line: y variables:
MRT used: 6 → 7
MRT used: 9 → 8
Customer assigment to PL: u variables:
4 8
5 7
Node is served by regular vehicle: g variables:
1
2
3
6
9
Customer assigment to Home delivery: gm variables:
1
2
3
Node total demands: ntd variables:
1 18 1
2 8 1
3 2 1
5 0 0
12 0 0
13 0 0
6 8 1
7 0 0
8 0 0
9 12 1
10 0 0
11 0 0
Customer's demand delivered to PL: l variables:
4
5
Lockers load <= capacity:
0 <= 77
0 <= 82
0 <= 90
8 <= 93
12 <= 72
0 <= 98
0 <= 80
0 <= 98
